Welcome to the CBC MILP Solver 
Version: Trunk
Build Date: Apr 16 2020 

Starting solution of the Linear programming relaxation problem using Primal Simplex

Using Python-MIP package version 1.8.1
Machines:  4 Jobs:  4
Order: 
Job  0 : machine 0 ( 10 ) machine 3 ( 1 ) machine 2 ( 6 ) machine 1 ( 7 ) 
Job  1 : machine 0 ( 1 ) machine 3 ( 7 ) machine 1 ( 5 ) machine 2 ( 8 ) 
Job  2 : machine 3 ( 9 ) machine 2 ( 3 ) machine 1 ( 7 ) machine 0 ( 1 ) 
Job  3 : machine 1 ( 7 ) machine 3 ( 3 ) machine 0 ( 9 ) machine 2 ( 10 ) 
K:  44
Job  0 , e: machine  0 ( 0 ) machine  1 ( 17 ) machine  2 ( 11 ) machine  3 ( 10 ) 
Job  1 , e: machine  0 ( 0 ) machine  1 ( 8 ) machine  2 ( 13 ) machine  3 ( 1 ) 
Job  2 , e: machine  0 ( 19 ) machine  1 ( 12 ) machine  2 ( 9 ) machine  3 ( 0 ) 
Job  3 , e: machine  0 ( 10 ) machine  1 ( 0 ) machine  2 ( 19 ) machine  3 ( 7 ) 
Job  0 , f: machine  0 ( 14 ) machine  1 ( 0 ) machine  2 ( 7 ) machine  3 ( 13 ) 
Job  1 , f: machine  0 ( 20 ) machine  1 ( 8 ) machine  2 ( 0 ) machine  3 ( 13 ) 
Job  2 , f: machine  0 ( 0 ) machine  1 ( 1 ) machine  2 ( 8 ) machine  3 ( 11 ) 
Job  3 , f: machine  0 ( 10 ) machine  1 ( 22 ) machine  2 ( 0 ) machine  3 ( 19 ) 
EST and LST:
Job: 0 Machine: 0 EST: 0 LST: 20
Job: 0 Machine: 1 EST: 17 LST: 37
Job: 0 Machine: 2 EST: 11 LST: 31
Job: 0 Machine: 3 EST: 10 LST: 30
Job: 1 Machine: 0 EST: 0 LST: 23
Job: 1 Machine: 1 EST: 8 LST: 31
Job: 1 Machine: 2 EST: 13 LST: 36
Job: 1 Machine: 3 EST: 1 LST: 24
Job: 2 Machine: 0 EST: 19 LST: 43
Job: 2 Machine: 1 EST: 12 LST: 36
Job: 2 Machine: 2 EST: 9 LST: 33
Job: 2 Machine: 3 EST: 0 LST: 24
Job: 3 Machine: 0 EST: 10 LST: 25
Job: 3 Machine: 1 EST: 0 LST: 15
Job: 3 Machine: 2 EST: 19 LST: 34
Job: 3 Machine: 3 EST: 7 LST: 22
Order:
Job: 0 Machine: 0 = 0 
Job: 0 Machine: 1 = 3 
Job: 0 Machine: 2 = 2 
Job: 0 Machine: 3 = 1 
Job: 1 Machine: 0 = 0 
Job: 1 Machine: 1 = 2 
Job: 1 Machine: 2 = 3 
Job: 1 Machine: 3 = 1 
Job: 2 Machine: 0 = 3 
Job: 2 Machine: 1 = 2 
Job: 2 Machine: 2 = 1 
Job: 2 Machine: 3 = 0 
Job: 3 Machine: 0 = 2 
Job: 3 Machine: 1 = 0 
Job: 3 Machine: 2 = 3 
Job: 3 Machine: 3 = 1 
Distances:
Job 0, Machine 0 -> Machine 3: distance 10
Job 0, Machine 0 -> Machine 2: distance 11
Job 0, Machine 0 -> Machine 1: distance 17
Job 0, Machine 3 -> Machine 2: distance 1
Job 0, Machine 3 -> Machine 1: distance 7
Job 0, Machine 2 -> Machine 1: distance 6
Job 1, Machine 0 -> Machine 3: distance 1
Job 1, Machine 0 -> Machine 1: distance 8
Job 1, Machine 0 -> Machine 2: distance 13
Job 1, Machine 3 -> Machine 1: distance 7
Job 1, Machine 3 -> Machine 2: distance 12
Job 1, Machine 1 -> Machine 2: distance 5
Job 2, Machine 3 -> Machine 2: distance 9
Job 2, Machine 3 -> Machine 1: distance 12
Job 2, Machine 3 -> Machine 0: distance 19
Job 2, Machine 2 -> Machine 1: distance 3
Job 2, Machine 2 -> Machine 0: distance 10
Job 2, Machine 1 -> Machine 0: distance 7
Job 3, Machine 1 -> Machine 3: distance 7
Job 3, Machine 1 -> Machine 0: distance 10
Job 3, Machine 1 -> Machine 2: distance 19
Job 3, Machine 3 -> Machine 0: distance 3
Job 3, Machine 3 -> Machine 2: distance 12
Job 3, Machine 0 -> Machine 2: distance 9
McCormic linearization
[(0, 0), (3, 0), (3, 1), (2, 1), (2, 0), (1, 0), (1, 1)]
obj:  0.6000000000000001
solutions:  1
+ x(0,0) + 0.1x(1,0) 
C:  28.999999999999996
x(0,0) = 0.20	 x(0,1) = 19.00	 x(0,2) = 13.00	 x(0,3) = 10.20	 
x(1,0) = 8.00	 x(1,1) = 16.00	 x(1,2) = 21.00	 x(1,3) = 9.00	 
x(2,0) = 20.20	 x(2,1) = 13.20	 x(2,2) = 10.20	 x(2,3) = 1.20	 
x(3,0) = 10.00	 x(3,1) = 0.00	 x(3,2) = 19.00	 x(3,3) = 7.00	 
y(0,1,0) = 0.37	 y(1,0,0) = 0.63	 
y(0,2,0) = 0.48	 y(2,0,0) = 0.52	 
y(0,3,0) = 0.99	 y(3,0,0) = 0.01	 
y(1,2,0) = 0.30	 y(2,1,0) = 0.70	 
y(1,3,0) = 0.96	 y(3,1,0) = 0.04	 
y(2,3,0) = 0.00	 y(3,2,0) = 1.00	 
y(0,1,1) = 0.48	 y(1,0,1) = 0.52	 
y(0,2,1) = 0.05	 y(2,0,1) = 0.95	 
y(0,3,1) = 0.00	 y(3,0,1) = 1.00	 
y(1,2,1) = 0.12	 y(2,1,1) = 0.88	 
y(1,3,1) = 0.38	 y(3,1,1) = 0.62	 
y(2,3,1) = 0.00	 y(3,2,1) = 1.00	 
y(0,1,2) = 0.48	 y(1,0,2) = 0.52	 
y(0,2,2) = 0.44	 y(2,0,2) = 0.56	 
y(0,3,2) = 1.00	 y(3,0,2) = 0.00	 
y(1,2,2) = 0.00	 y(2,1,2) = 1.00	 
y(1,3,2) = 0.26	 y(3,1,2) = 0.74	 
y(2,3,2) = 0.74	 y(3,2,2) = 0.26	 
y(0,1,3) = 0.28	 y(1,0,3) = 0.72	 
y(0,2,3) = 0.00	 y(2,0,3) = 1.00	 
y(0,3,3) = 0.01	 y(3,0,3) = 0.99	 
y(1,2,3) = 0.04	 y(2,1,3) = 0.96	 
y(1,3,3) = 0.04	 y(3,1,3) = 0.96	 
y(2,3,3) = 0.35	 y(3,2,3) = 0.65	 
obj:  0.7899005756148614
solutions:  1
+ 0.006122448979591846x(1,3) + 0.10010465724751438x(3,3) + 0.014599686028257465x(2,3) + 0.00162218733647305x(0,3) 
[(1, 2), (1, 3), (3, 3), (0, 2), (3, 1), (2, 3), (0, 3), (1, 1)]
cliques:  1 mip: 72
C:  30.417270929465545
x(0,0) = 1.00	 x(0,1) = 23.42	 x(0,2) = 17.42	 x(0,3) = 16.42	 
x(1,0) = -0.00	 x(1,1) = 8.00	 x(1,2) = 13.00	 x(1,3) = 1.00	 
x(2,0) = 29.42	 x(2,1) = 22.42	 x(2,2) = 19.42	 x(2,3) = 10.42	 
x(3,0) = 11.14	 x(3,1) = 0.00	 x(3,2) = 20.14	 x(3,3) = 8.14	 
y(0,1,0) = 0.00	 y(1,0,0) = 1.00	 
y(0,2,0) = 0.67	 y(2,0,0) = 0.33	 
y(0,3,0) = 0.99	 y(3,0,0) = 0.01	 
y(1,2,0) = 0.69	 y(2,1,0) = 0.31	 
y(1,3,0) = 0.59	 y(3,1,0) = 0.41	 
y(2,3,0) = 0.00	 y(3,2,0) = 1.00	 
y(0,1,1) = 0.11	 y(1,0,1) = 0.89	 
y(0,2,1) = 0.23	 y(2,0,1) = 0.77	 
y(0,3,1) = 0.00	 y(3,0,1) = 1.00	 
y(1,2,1) = 0.61	 y(2,1,1) = 0.39	 
y(1,3,1) = 0.04	 y(3,1,1) = 0.96	 
y(2,3,1) = 0.00	 y(3,2,1) = 1.00	 
y(0,1,2) = 0.11	 y(1,0,2) = 0.89	 
y(0,2,2) = 0.38	 y(2,0,2) = 0.62	 
y(0,3,2) = 0.73	 y(3,0,2) = 0.27	 
y(1,2,2) = 0.41	 y(2,1,2) = 0.59	 
y(1,3,2) = 0.97	 y(3,1,2) = 0.03	 
y(2,3,2) = 0.87	 y(3,2,2) = 0.13	 
y(0,1,3) = 0.00	 y(1,0,3) = 1.00	 
y(0,2,3) = 0.43	 y(2,0,3) = 0.57	 
y(0,3,3) = 0.26	 y(3,0,3) = 0.74	 
y(1,2,3) = 0.58	 y(2,1,3) = 0.42	 
y(1,3,3) = 0.99	 y(3,1,3) = 0.01	 
y(2,3,3) = 0.03	 y(3,2,3) = 0.97	 
obj:  0.9449301360535319
solutions:  1
+ 0.062295081967213124x(1,3) + 0.01967213114754099x(3,3) + 0.05901639344262296x(2,3) + 0.00655737704918032x(0,3) 
[(1, 3), (0, 0), (3, 3), (3, 0), (2, 3), (1, 0), (0, 3)]
cliques:  1 mip: 115
C:  31.29089692744349
x(0,0) = 0.93	 x(0,1) = 18.04	 x(0,2) = 11.93	 x(0,3) = 10.93	 
x(1,0) = 0.74	 x(1,1) = 8.74	 x(1,2) = 13.74	 x(1,3) = 1.74	 
x(2,0) = 30.29	 x(2,1) = 22.89	 x(2,2) = 19.89	 x(2,3) = 10.89	 
x(3,0) = 12.02	 x(3,1) = 1.74	 x(3,2) = 21.08	 x(3,3) = 9.02	 
y(0,1,0) = 0.03	 y(1,0,0) = 0.97	 
y(0,2,0) = 1.00	 y(2,0,0) = 0.00	 
y(0,3,0) = 0.99	 y(3,0,0) = 0.01	 
y(1,2,0) = 0.98	 y(2,1,0) = 0.02	 
y(1,3,0) = 0.96	 y(3,1,0) = 0.04	 
y(2,3,0) = 0.00	 y(3,2,0) = 1.00	 
y(0,1,1) = 0.01	 y(1,0,1) = 0.99	 
y(0,2,1) = 0.93	 y(2,0,1) = 0.07	 
y(0,3,1) = 0.00	 y(3,0,1) = 1.00	 
y(1,2,1) = 1.00	 y(2,1,1) = 0.00	 
y(1,3,1) = 0.00	 y(3,1,1) = 1.00	 
y(2,3,1) = 0.00	 y(3,2,1) = 1.00	 
y(0,1,2) = 0.83	 y(1,0,2) = 0.17	 
y(0,2,2) = 0.44	 y(2,0,2) = 0.56	 
y(0,3,2) = 1.00	 y(3,0,2) = 0.00	 
y(1,2,2) = 0.90	 y(2,1,2) = 0.10	 
y(1,3,2) = 0.97	 y(3,1,2) = 0.03	 
y(2,3,2) = 0.32	 y(3,2,2) = 0.68	 
y(0,1,3) = 0.00	 y(1,0,3) = 1.00	 
y(0,2,3) = 0.39	 y(2,0,3) = 0.61	 
y(0,3,3) = 0.07	 y(3,0,3) = 0.93	 
y(1,2,3) = 0.95	 y(2,1,3) = 0.05	 
y(1,3,3) = 1.00	 y(3,1,3) = 0.00	 
y(2,3,3) = 0.58	 y(3,2,3) = 0.42	 
obj:  0.8077713692841206
solutions:  1
+ 0.014411446806320453x(1,2) + 0.02264655926707499x(3,2) + 0.0020073086623089067x(1,3) + 0.010808585104740333x(0,2) 
[(1, 2), (3, 2), (1, 3), (3, 3), (2, 3), (2, 2), (0, 3), (0, 2)]
cliques:  1 mip: 119
C:  33.17140292746714
x(0,0) = 0.90	 x(0,1) = 26.17	 x(0,2) = 20.17	 x(0,3) = 18.06	 
x(1,0) = 0.98	 x(1,1) = 15.76	 x(1,2) = 20.76	 x(1,3) = 8.76	 
x(2,0) = 32.17	 x(2,1) = 23.33	 x(2,2) = 20.33	 x(2,3) = 11.33	 
x(3,0) = 11.54	 x(3,1) = 1.54	 x(3,2) = 20.54	 x(3,3) = 8.54	 
y(0,1,0) = 0.04	 y(1,0,0) = 0.96	 
y(0,2,0) = 0.98	 y(2,0,0) = 0.02	 
y(0,3,0) = 0.96	 y(3,0,0) = 0.04	 
y(1,2,0) = 0.81	 y(2,1,0) = 0.19	 
y(1,3,0) = 0.58	 y(3,1,0) = 0.42	 
y(2,3,0) = 0.00	 y(3,2,0) = 1.00	 
y(0,1,1) = 0.08	 y(1,0,1) = 0.92	 
y(0,2,1) = 0.69	 y(2,0,1) = 0.31	 
y(0,3,1) = 0.00	 y(3,0,1) = 1.00	 
y(1,2,1) = 1.00	 y(2,1,1) = 0.00	 
y(1,3,1) = 0.00	 y(3,1,1) = 1.00	 
y(2,3,1) = 0.00	 y(3,2,1) = 1.00	 
y(0,1,2) = 0.77	 y(1,0,2) = 0.23	 
y(0,2,2) = 0.18	 y(2,0,2) = 0.82	 
y(0,3,2) = 0.69	 y(3,0,2) = 0.31	 
y(1,2,2) = 0.20	 y(2,1,2) = 0.80	 
y(1,3,2) = 0.67	 y(3,1,2) = 0.33	 
y(2,3,2) = 0.71	 y(3,2,2) = 0.29	 
y(0,1,3) = 0.00	 y(1,0,3) = 1.00	 
y(0,2,3) = 0.10	 y(2,0,3) = 0.90	 
y(0,3,3) = 0.00	 y(3,0,3) = 1.00	 
y(1,2,3) = 0.59	 y(2,1,3) = 0.41	 
y(1,3,3) = 0.70	 y(3,1,3) = 0.30	 
y(2,3,3) = 0.26	 y(3,2,3) = 0.74	 
obj:  1.0000000000000007
erro
[(0, 0), (1, 3), (3, 3), (3, 0), (2, 3), (1, 0), (0, 3)]
cliques:  0 mip: 139
C:  34.00000000000001
x(0,0) = 0.63	 x(0,1) = 22.36	 x(0,2) = 16.36	 x(0,3) = 12.07	 
x(1,0) = 3.70	 x(1,1) = 15.46	 x(1,2) = 24.55	 x(1,3) = 8.46	 
x(2,0) = 33.00	 x(2,1) = 23.48	 x(2,2) = 20.48	 x(2,3) = 8.93	 
x(3,0) = 10.97	 x(3,1) = 0.97	 x(3,2) = 19.97	 x(3,3) = 7.97	 
y(0,1,0) = 0.17	 y(1,0,0) = 0.83	 
y(0,2,0) = 0.99	 y(2,0,0) = 0.01	 
y(0,3,0) = 0.98	 y(3,0,0) = 0.02	 
y(1,2,0) = 0.82	 y(2,1,0) = 0.18	 
y(1,3,0) = 0.58	 y(3,1,0) = 0.42	 
y(2,3,0) = 0.00	 y(3,2,0) = 1.00	 
y(0,1,1) = 0.00	 y(1,0,1) = 1.00	 
y(0,2,1) = 0.58	 y(2,0,1) = 0.42	 
y(0,3,1) = 0.00	 y(3,0,1) = 1.00	 
y(1,2,1) = 1.00	 y(2,1,1) = 0.00	 
y(1,3,1) = 0.00	 y(3,1,1) = 1.00	 
y(2,3,1) = 0.00	 y(3,2,1) = 1.00	 
y(0,1,2) = 0.86	 y(1,0,2) = 0.14	 
y(0,2,2) = 0.42	 y(2,0,2) = 0.58	 
y(0,3,2) = 0.58	 y(3,0,2) = 0.42	 
y(1,2,2) = 0.00	 y(2,1,2) = 1.00	 
y(1,3,2) = 0.50	 y(3,1,2) = 0.50	 
y(2,3,2) = 0.61	 y(3,2,2) = 0.39	 
y(0,1,3) = 0.16	 y(1,0,3) = 0.84	 
y(0,2,3) = 0.38	 y(2,0,3) = 0.62	 
y(0,3,3) = 0.00	 y(3,0,3) = 1.00	 
y(1,2,3) = 0.45	 y(2,1,3) = 0.55	 
y(1,3,3) = 0.69	 y(3,1,3) = 0.31	 
y(2,3,3) = 0.60	 y(3,2,3) = 0.40	 
obj:  0.9978824864922502
solutions:  1
+ 0.09174311926605501x(0,0) + 0.08256880733944952x(3,0) + 0.009174311926605519x(1,0) 
[(1, 2), (3, 2), (0, 0), (3, 0), (0, 2), (3, 1), (1, 0), (1, 1)]
cliques:  1 mip: 105
C:  34.0
x(0,0) = 0.67	 x(0,1) = 23.80	 x(0,2) = 17.80	 x(0,3) = 16.80	 
x(1,0) = 3.28	 x(1,1) = 16.60	 x(1,2) = 21.60	 x(1,3) = 7.05	 
x(2,0) = 33.00	 x(2,1) = 22.40	 x(2,2) = 19.36	 x(2,3) = 10.04	 
x(3,0) = 12.37	 x(3,1) = 0.82	 x(3,2) = 21.37	 x(3,3) = 7.82	 
y(0,1,0) = 0.15	 y(1,0,0) = 0.85	 
y(0,2,0) = 0.99	 y(2,0,0) = 0.01	 
y(0,3,0) = 0.89	 y(3,0,0) = 0.11	 
y(1,2,0) = 0.85	 y(2,1,0) = 0.15	 
y(1,3,0) = 0.66	 y(3,1,0) = 0.34	 
y(2,3,0) = 0.00	 y(3,2,0) = 1.00	 
y(0,1,1) = 0.51	 y(1,0,1) = 0.49	 
y(0,2,1) = 0.40	 y(2,0,1) = 0.60	 
y(0,3,1) = 0.00	 y(3,0,1) = 1.00	 
y(1,2,1) = 1.00	 y(2,1,1) = 0.00	 
y(1,3,1) = 0.00	 y(3,1,1) = 1.00	 
y(2,3,1) = 0.00	 y(3,2,1) = 1.00	 
y(0,1,2) = 0.64	 y(1,0,2) = 0.36	 
y(0,2,2) = 0.21	 y(2,0,2) = 0.79	 
y(0,3,2) = 0.58	 y(3,0,2) = 0.42	 
y(1,2,2) = 0.03	 y(2,1,2) = 0.97	 
y(1,3,2) = 0.67	 y(3,1,2) = 0.33	 
y(2,3,2) = 0.72	 y(3,2,2) = 0.28	 
y(0,1,3) = 0.00	 y(1,0,3) = 1.00	 
y(0,2,3) = 0.11	 y(2,0,3) = 0.89	 
y(0,3,3) = 0.00	 y(3,0,3) = 1.00	 
y(1,2,3) = 0.56	 y(2,1,3) = 0.44	 
y(1,3,3) = 0.74	 y(3,1,3) = 0.26	 
y(2,3,3) = 0.42	 y(3,2,3) = 0.58	 
obj:  1.0000000000000002
erro
[(0, 1), (1, 3), (3, 3), (3, 1), (1, 1), (2, 3), (0, 3), (0, 2)]
cliques:  0 mip: 108
C:  34.0
x(0,0) = 1.00	 x(0,1) = 25.32	 x(0,2) = 18.12	 x(0,3) = 14.38	 
x(1,0) = 0.00	 x(1,1) = 15.06	 x(1,2) = 20.06	 x(1,3) = 7.38	 
x(2,0) = 33.00	 x(2,1) = 21.26	 x(2,2) = 18.26	 x(2,3) = 8.75	 
x(3,0) = 13.09	 x(3,1) = 1.03	 x(3,2) = 22.09	 x(3,3) = 8.03	 
y(0,1,0) = 0.00	 y(1,0,0) = 1.00	 
y(0,2,0) = 0.99	 y(2,0,0) = 0.01	 
y(0,3,0) = 0.86	 y(3,0,0) = 0.14	 
y(1,2,0) = 0.86	 y(2,1,0) = 0.14	 
y(1,3,0) = 0.65	 y(3,1,0) = 0.35	 
y(2,3,0) = 0.00	 y(3,2,0) = 1.00	 
y(0,1,1) = 0.35	 y(1,0,1) = 0.65	 
y(0,2,1) = 0.21	 y(2,0,1) = 0.79	 
y(0,3,1) = 0.00	 y(3,0,1) = 1.00	 
y(1,2,1) = 1.00	 y(2,1,1) = 0.00	 
y(1,3,1) = 0.00	 y(3,1,1) = 1.00	 
y(2,3,1) = 0.00	 y(3,2,1) = 1.00	 
y(0,1,2) = 0.58	 y(1,0,2) = 0.42	 
y(0,2,2) = 0.13	 y(2,0,2) = 0.87	 
y(0,3,2) = 0.42	 y(3,0,2) = 0.58	 
y(1,2,2) = 0.05	 y(2,1,2) = 0.95	 
y(1,3,2) = 0.76	 y(3,1,2) = 0.24	 
y(2,3,2) = 0.80	 y(3,2,2) = 0.20	 
y(0,1,3) = 0.00	 y(1,0,3) = 1.00	 
y(0,2,3) = 0.24	 y(2,0,3) = 0.76	 
y(0,3,3) = 0.00	 y(3,0,3) = 1.00	 
y(1,2,3) = 0.48	 y(2,1,3) = 0.52	 
y(1,3,3) = 0.74	 y(3,1,3) = 0.26	 
y(2,3,3) = 0.56	 y(3,2,3) = 0.44	 
obj:  0.9999999999999896
erro
[(1, 3), (0, 0), (3, 3), (3, 0), (2, 3), (1, 0), (0, 3)]
cliques:  0 mip: 19
C:  34.00000000000001
x(0,0) = 1.00	 x(0,1) = 25.35	 x(0,2) = 18.18	 x(0,3) = 14.34	 
x(1,0) = -0.00	 x(1,1) = 14.91	 x(1,2) = 19.91	 x(1,3) = 7.34	 
x(2,0) = 33.00	 x(2,1) = 21.24	 x(2,2) = 18.24	 x(2,3) = 8.53	 
x(3,0) = 13.16	 x(3,1) = 1.06	 x(3,2) = 22.16	 x(3,3) = 8.06	 
y(0,1,0) = -0.00	 y(1,0,0) = 1.00	 
y(0,2,0) = 0.99	 y(2,0,0) = 0.01	 
y(0,3,0) = 0.86	 y(3,0,0) = 0.14	 
y(1,2,0) = 0.86	 y(2,1,0) = 0.14	 
y(1,3,0) = 0.65	 y(3,1,0) = 0.35	 
y(2,3,0) = 0.00	 y(3,2,0) = 1.00	 
y(0,1,1) = 0.35	 y(1,0,1) = 0.65	 
y(0,2,1) = 0.21	 y(2,0,1) = 0.79	 
y(0,3,1) = 0.00	 y(3,0,1) = 1.00	 
y(1,2,1) = 1.00	 y(2,1,1) = 0.00	 
y(1,3,1) = 0.00	 y(3,1,1) = 1.00	 
y(2,3,1) = 0.00	 y(3,2,1) = 1.00	 
y(0,1,2) = 0.57	 y(1,0,2) = 0.43	 
y(0,2,2) = 0.12	 y(2,0,2) = 0.88	 
y(0,3,2) = 0.42	 y(3,0,2) = 0.58	 
y(1,2,2) = 0.06	 y(2,1,2) = 0.94	 
y(1,3,2) = 0.77	 y(3,1,2) = 0.23	 
y(2,3,2) = 0.80	 y(3,2,2) = 0.20	 
y(0,1,3) = 0.00	 y(1,0,3) = 1.00	 
y(0,2,3) = 0.23	 y(2,0,3) = 0.77	 
y(0,3,3) = 0.00	 y(3,0,3) = 1.00	 
y(1,2,3) = 0.47	 y(2,1,3) = 0.53	 
y(1,3,3) = 0.74	 y(3,1,3) = 0.26	 
y(2,3,3) = 0.59	 y(3,2,3) = 0.41	 
obj:  1.0000000000000466
erro
[(1, 3), (0, 0), (3, 3), (3, 0), (2, 3), (1, 0), (0, 3)]
cliques:  0 mip: 95
C:  34.0
x(0,0) = 0.82	 x(0,1) = 22.69	 x(0,2) = 14.83	 x(0,3) = 13.83	 
x(1,0) = 11.14	 x(1,1) = 21.00	 x(1,2) = 26.00	 x(1,3) = 14.00	 
x(2,0) = 31.21	 x(2,1) = 23.23	 x(2,2) = 20.23	 x(2,3) = 11.23	 
x(3,0) = 10.27	 x(3,1) = 0.27	 x(3,2) = 19.29	 x(3,3) = 7.27	 
y(0,1,0) = 0.71	 y(1,0,0) = 0.29	 
y(0,2,0) = 0.91	 y(2,0,0) = 0.09	 
y(0,3,0) = 0.97	 y(3,0,0) = 0.03	 
y(1,2,0) = 0.63	 y(2,1,0) = 0.37	 
y(1,3,0) = 0.60	 y(3,1,0) = 0.40	 
y(2,3,0) = 0.00	 y(3,2,0) = 1.00	 
y(0,1,1) = 0.54	 y(1,0,1) = 0.46	 
y(0,2,1) = 0.54	 y(2,0,1) = 0.46	 
y(0,3,1) = 0.00	 y(3,0,1) = 1.00	 
y(1,2,1) = 0.88	 y(2,1,1) = 0.12	 
y(1,3,1) = 0.00	 y(3,1,1) = 1.00	 
y(2,3,1) = 0.00	 y(3,2,1) = 1.00	 
y(0,1,2) = 0.93	 y(1,0,2) = 0.07	 
y(0,2,2) = 0.48	 y(2,0,2) = 0.52	 
y(0,3,2) = 0.73	 y(3,0,2) = 0.27	 
y(1,2,2) = 0.61	 y(2,1,2) = 0.39	 
y(1,3,2) = 0.41	 y(3,1,2) = 0.59	 
y(2,3,2) = 0.55	 y(3,2,2) = 0.45	 
y(0,1,3) = 0.68	 y(1,0,3) = 0.32	 
y(0,2,3) = 0.28	 y(2,0,3) = 0.72	 
y(0,3,3) = 0.00	 y(3,0,3) = 1.00	 
y(1,2,3) = 0.68	 y(2,1,3) = 0.32	 
y(1,3,3) = 0.43	 y(3,1,3) = 0.57	 
y(2,3,3) = 0.00	 y(3,2,3) = 1.00	 
obj:  0.9680534463375309
solutions:  1
+ 0.012605661490072738x(1,2) + 0.0210094358167879x(3,2) + 0.00046687635148416493x(1,3) + 0.01422744250049141x(3,3) + 0.008428346766266958x(0,2) 
[(1, 2), (3, 2), (1, 3), (3, 3), (2, 3), (2, 2), (0, 3), (0, 2)]
cliques:  1 mip: 37
C:  34.09829987777589
x(0,0) = 0.29	 x(0,1) = 27.10	 x(0,2) = 21.10	 x(0,3) = 10.29	 
x(1,0) = 7.14	 x(1,1) = 15.14	 x(1,2) = 20.14	 x(1,3) = 8.14	 
x(2,0) = 23.31	 x(2,1) = 16.31	 x(2,2) = 13.31	 x(2,3) = 4.25	 
x(3,0) = 11.87	 x(3,1) = 1.87	 x(3,2) = 20.87	 x(3,3) = 8.87	 
y(0,1,0) = 0.53	 y(1,0,0) = 0.47	 
y(0,2,0) = 0.70	 y(2,0,0) = 0.30	 
y(0,3,0) = 0.89	 y(3,0,0) = 0.11	 
y(1,2,0) = 0.53	 y(2,1,0) = 0.47	 
y(1,3,0) = 0.67	 y(3,1,0) = 0.33	 
y(2,3,0) = 0.00	 y(3,2,0) = 1.00	 
y(0,1,1) = 0.06	 y(1,0,1) = 0.94	 
y(0,2,1) = -0.00	 y(2,0,1) = 1.00	 
y(0,3,1) = 0.00	 y(3,0,1) = 1.00	 
y(1,2,1) = 0.84	 y(2,1,1) = 0.16	 
y(1,3,1) = 0.00	 y(3,1,1) = 1.00	 
y(2,3,1) = 0.00	 y(3,2,1) = 1.00	 
y(0,1,2) = 0.51	 y(1,0,2) = 0.49	 
y(0,2,2) = 0.25	 y(2,0,2) = 0.75	 
y(0,3,2) = 0.30	 y(3,0,2) = 0.70	 
y(1,2,2) = 0.58	 y(2,1,2) = 0.42	 
y(1,3,2) = 0.60	 y(3,1,2) = 0.40	 
y(2,3,2) = 0.85	 y(3,2,2) = 0.15	 
y(0,1,3) = 0.62	 y(1,0,3) = 0.38	 
y(0,2,3) = 0.40	 y(2,0,3) = 0.60	 
y(0,3,3) = 0.11	 y(3,0,3) = 0.89	 
y(1,2,3) = 0.65	 y(2,1,3) = 0.35	 
y(1,3,3) = 0.74	 y(3,1,3) = 0.26	 
y(2,3,3) = 0.30	 y(3,2,3) = 0.70	 
obj:  0.9366528963336093
solutions:  1
+ 0.035714285714285705x(1,3) + 0.015306122448979595x(3,3) + 0.039753401360544206x(2,3) + 0.03316326530612246x(0,3) 
[(1, 2), (1, 3), (3, 3), (0, 2), (3, 1), (2, 3), (0, 3), (1, 1)]
cliques:  1 mip: 143
C:  35.0
x(0,0) = 2.79	 x(0,1) = 24.21	 x(0,2) = 18.21	 x(0,3) = 12.79	 
x(1,0) = 1.66	 x(1,1) = 9.66	 x(1,2) = 20.60	 x(1,3) = 2.66	 
x(2,0) = 32.39	 x(2,1) = 23.84	 x(2,2) = 20.84	 x(2,3) = 9.34	 
x(3,0) = 13.12	 x(3,1) = 2.66	 x(3,2) = 22.12	 x(3,3) = 10.12	 
y(0,1,0) = 0.00	 y(1,0,0) = 1.00	 
y(0,2,0) = 0.88	 y(2,0,0) = 0.12	 
y(0,3,0) = 0.57	 y(3,0,0) = 0.43	 
y(1,2,0) = 0.91	 y(2,1,0) = 0.09	 
y(1,3,0) = 0.89	 y(3,1,0) = 0.11	 
y(2,3,0) = 0.00	 y(3,2,0) = 1.00	 
y(0,1,1) = 0.00	 y(1,0,1) = 1.00	 
y(0,2,1) = 0.47	 y(2,0,1) = 0.53	 
y(0,3,1) = 0.00	 y(3,0,1) = 1.00	 
y(1,2,1) = 1.00	 y(2,1,1) = -0.00	 
y(1,3,1) = 0.00	 y(3,1,1) = 1.00	 
y(2,3,1) = 0.00	 y(3,2,1) = 1.00	 
y(0,1,2) = 0.47	 y(1,0,2) = 0.53	 
y(0,2,2) = 0.28	 y(2,0,2) = 0.72	 
y(0,3,2) = 0.88	 y(3,0,2) = 0.12	 
y(1,2,2) = 0.78	 y(2,1,2) = 0.22	 
y(1,3,2) = 0.64	 y(3,1,2) = 0.36	 
y(2,3,2) = 0.63	 y(3,2,2) = 0.37	 
y(0,1,3) = 0.14	 y(1,0,3) = 0.86	 
y(0,2,3) = 0.36	 y(2,0,3) = 0.64	 
y(0,3,3) = 0.02	 y(3,0,3) = 0.98	 
y(1,2,3) = 0.65	 y(2,1,3) = 0.35	 
y(1,3,3) = 1.00	 y(3,1,3) = 0.00	 
y(2,3,3) = 0.68	 y(3,2,3) = 0.32	 
obj:  1.010549828420457
erro
[(0, 1), (1, 2), (3, 2), (3, 1), (2, 1), (1, 1), (2, 2), (0, 2)]
cliques:  0 mip: 106
C:  35.00000000000002
x(0,0) = 1.45	 x(0,1) = 23.49	 x(0,2) = 17.29	 x(0,3) = 11.45	 
x(1,0) = 0.00	 x(1,1) = 8.89	 x(1,2) = 17.00	 x(1,3) = 1.00	 
x(2,0) = 31.38	 x(2,1) = 24.38	 x(2,2) = 20.89	 x(2,3) = 10.46	 
x(3,0) = 16.00	 x(3,1) = 1.89	 x(3,2) = 25.00	 x(3,3) = 12.47	 
y(0,1,0) = 0.00	 y(1,0,0) = 1.00	 
y(0,2,0) = 0.90	 y(2,0,0) = 0.10	 
y(0,3,0) = 0.70	 y(3,0,0) = 0.30	 
y(1,2,0) = 0.92	 y(2,1,0) = 0.08	 
y(1,3,0) = 0.99	 y(3,1,0) = 0.01	 
y(2,3,0) = -0.00	 y(3,2,0) = 1.00	 
y(0,1,1) = 0.40	 y(1,0,1) = 0.60	 
y(0,2,1) = 0.56	 y(2,0,1) = 0.44	 
y(0,3,1) = 0.00	 y(3,0,1) = 1.00	 
y(1,2,1) = 1.00	 y(2,1,1) = 0.00	 
y(1,3,1) = 0.00	 y(3,1,1) = 1.00	 
y(2,3,1) = 0.00	 y(3,2,1) = 1.00	 
y(0,1,2) = 0.65	 y(1,0,2) = 0.35	 
y(0,2,2) = 0.30	 y(2,0,2) = 0.70	 
y(0,3,2) = 1.00	 y(3,0,2) = 0.00	 
y(1,2,2) = 0.88	 y(2,1,2) = 0.12	 
y(1,3,2) = 1.00	 y(3,1,2) = -0.00	 
y(2,3,2) = 0.83	 y(3,2,2) = 0.17	 
y(0,1,3) = 0.16	 y(1,0,3) = 0.84	 
y(0,2,3) = 0.45	 y(2,0,3) = 0.55	 
y(0,3,3) = 0.27	 y(3,0,3) = 0.73	 
y(1,2,3) = 0.85	 y(2,1,3) = 0.15	 
y(1,3,3) = 1.00	 y(3,1,3) = 0.00	 
y(2,3,3) = 0.49	 y(3,2,3) = 0.51	 
obj:  0.959055638596384
solutions:  1
+ 0.058569432092491415x(1,3) + 0.0063524329818320435x(3,3) + 0.05208995045102276x(2,3) + 0.024139245330961758x(0,3) 
[(0, 1), (1, 3), (3, 3), (3, 1), (2, 3), (0, 3), (1, 1)]
cliques:  1 mip: 0
C:  34.99999999999999
x(0,0) = 1.67	 x(0,1) = 23.54	 x(0,2) = 17.29	 x(0,3) = 12.61	 
x(1,0) = 0.00	 x(1,1) = 8.94	 x(1,2) = 17.00	 x(1,3) = 1.00	 
x(2,0) = 31.35	 x(2,1) = 24.35	 x(2,2) = 20.82	 x(2,3) = 11.29	 
x(3,0) = 16.00	 x(3,1) = 1.94	 x(3,2) = 25.00	 x(3,3) = 9.61	 
y(0,1,0) = 0.00	 y(1,0,0) = 1.00	 
y(0,2,0) = 0.90	 y(2,0,0) = 0.10	 
y(0,3,0) = 0.69	 y(3,0,0) = 0.31	 
y(1,2,0) = 0.92	 y(2,1,0) = 0.08	 
y(1,3,0) = 0.99	 y(3,1,0) = 0.01	 
y(2,3,0) = 0.00	 y(3,2,0) = 1.00	 
y(0,1,1) = 0.40	 y(1,0,1) = 0.60	 
y(0,2,1) = 0.56	 y(2,0,1) = 0.44	 
y(0,3,1) = 0.00	 y(3,0,1) = 1.00	 
y(1,2,1) = 1.00	 y(2,1,1) = 0.00	 
y(1,3,1) = 0.00	 y(3,1,1) = 1.00	 
y(2,3,1) = 0.00	 y(3,2,1) = 1.00	 
y(0,1,2) = 0.65	 y(1,0,2) = 0.35	 
y(0,2,2) = 0.30	 y(2,0,2) = 0.70	 
y(0,3,2) = 1.00	 y(3,0,2) = 0.00	 
y(1,2,2) = 0.88	 y(2,1,2) = 0.12	 
y(1,3,2) = 1.00	 y(3,1,2) = 0.00	 
y(2,3,2) = 0.83	 y(3,2,2) = 0.17	 
y(0,1,3) = 0.21	 y(1,0,3) = 0.79	 
y(0,2,3) = 0.44	 y(2,0,3) = 0.56	 
y(0,3,3) = 0.00	 y(3,0,3) = 1.00	 
y(1,2,3) = 0.82	 y(2,1,3) = 0.18	 
y(1,3,3) = 1.00	 y(3,1,3) = 0.00	 
y(2,3,3) = 0.39	 y(3,2,3) = 0.61	 
obj:  1.0150105843864266
erro
[(0, 1), (1, 2), (3, 2), (3, 1), (2, 1), (1, 1), (2, 2), (0, 2)]
cliques:  0 mip: 0
iterações: 13 cortes cliques encontrados: 8 mip: 1086 objective:  34.99999999999999
Coin0506I Presolve 157 (-171) rows, 90 (-71) columns and 490 (-260) elements
Clp1000I sum of infeasibilities 1.79124e-08 - average 1.14092e-10, 0 fixed columns
Coin0506I Presolve 157 (0) rows, 90 (0) columns and 490 (0) elements
Clp0029I End of values pass after 90 iterations
Clp0000I Optimal - objective value 29
Clp0000I Optimal - objective value 29
Coin0511I After Postsolve, objective 29, infeasibilities - dual 0 (0), primal 0 (0)
Clp0000I Optimal - objective value 29
Clp0000I Optimal - objective value 29
Clp0000I Optimal - objective value 29
Coin0511I After Postsolve, objective 29, infeasibilities - dual 0 (0), primal 0 (0)
Clp0032I Optimal objective 29 - 0 iterations time 0.012, Presolve 0.00, Idiot 0.01
Coin3009W Conflict graph built in 0.000 seconds, density: 0.070%
